(declare-const term_to_project_onto0 Real)
(declare-const uninterp Int)
(declare-const |r'| Int)
(declare-const uninterp0 Int)
(declare-const A Int)
(declare-const r Int)
(declare-const term_to_project_onto Real)
(declare-const v Int)
(declare-const u Int)
(declare-const |v'| Int)
(assert (and (<= (+ (- u) 1) 0) (<= (+ (- v) 1) 0) (<= (+ (- A) 1) 0)
               (= (+ (- A) 1) 0)
               (= (+ (* 4 r) (* 4 A) uninterp (* -2 v) (- uninterp0) (* 2 u)) 0)
               (<= (+ (- r) 1) 0) (= (+ |r'| (- r) v) 0)
               (= (+ |v'| (- v) -2) 0) (<= 1 uninterp0) (<= u uninterp0)
               (<= u uninterp0) (<= 1 uninterp) (<= v uninterp)
               (<= v uninterp) (= term_to_project_onto0 (+ |v'| (- v)))
               (= term_to_project_onto (+ |r'| (- r)))))
(check-sat)
